5 10 114
3 5 1 4 3 1 2 6 24 54 78 78 98 
1 3 3 76 94 
3 3 1 2 2 4 4 20 34 66 86 86 98 
4 4 1 5 2 5 4 1 3 8 22 26 40 62 82 100 114 
3 2 1 3 2 5 5 28 52 54 74 90 106 
1 3 4 98 114 
3 4 2 5 3 2 3 28 44 44 60 94 110 
1 1 1 48 70 
18 5 1 3 1 3 1 5 2 5 2 4 2 5 3 5 3 3 2 3 2 5 4 5 4 1 2 1 2 4 4 2 3 1 3 1 3 0 6 6 14 14 20 20 24 24 26 26 28 38 40 40 42 42 46 46 54 56 60 60 62 62 70 70 76 78 86 86 94 94 98 98 100 
15 4 1 2 1 2 1 1 1 1 1 4 3 4 3 2 2 2 2 3 3 3 3 5 5 5 5 3 4 3 4 0 8 8 18 18 28 28 36 36 48 48 50 50 54 54 58 58 66 66 74 74 76 76 84 84 90 92 94 94 98 
